\ Model Routes
\ LP format - for model browsing. Use MPS format to capture full model detail.
Maximize
  - 127.7762031097757 R{0,0} + 1939.569576505444 R{0,1}
   + 3097.386577765731 R{0,2} + 3394.006601693689 R{0,3}
   + 3659.157394052692 R{0,4} + 2890.011033983239 R{0,5}
   + 2330.588764274265 R{0,6} + 2775.037397275692 R{0,7}
   + 2904.979289238107 R{0,8} + 3318.001700375289 R{0,9}
   + 1821.012597900693 R{0,10} + 1090.470773521271 R{0,11}
   + 2078.071375619033 R{0,12} + 2194.694694787642 R{0,13}
   + 2790.514205716847 R{0,14} + 1916.815592936602 R{0,15}
   + 2926.800256033815 R{0,16} + 3490.676080388512 R{0,17}
   + 2340.318117973811 R{0,18} + 2361.090707374551 R{0,19}
   + 2080.014655899418 R{0,20} + 1343.212051147943 R{0,21}
   + 2630.103211060307 R{0,22} + 2219.099171724657 R{0,23}
   + 1859.193978780465 R{0,24} + 1892.776269101731 R{0,25}
   + 2320.035776319979 R{0,26} + 1999.044068652331 R{0,27}
   + 2672.959603981668 R{0,28} + 2358.804795252703 R{0,29}
   + 2570.976921662961 R{0,30} + 2572.438384121857 R{0,31}
   - 200.856038906509 R{1,0} + 749.6313164006126 R{1,1}
   + 2516.434742324576 R{1,2} + 2646.193780603122 R{1,3}
   + 2123.900509931962 R{1,4} + 2188.438978565898 R{1,5}
   + 695.664282170349 R{1,6} + 1806.839555228096 R{1,7}
   + 598.9461811378139 R{1,8} + 62.54105464408832 R{1,9}
   + 1626.247883532666 R{1,10} + 185.6087228889875 R{1,11}
   + 1128.999441469592 R{1,12} + 1335.894620789059 R{1,13}
   + 1146.49582430566 R{1,14} + 1917.886160528894 R{1,15}
   + 2843.793573070574 R{1,16} + 2683.900228505261 R{1,17}
   + 1503.98477133509 R{1,18} + 2828.879556676032 R{1,19}
   + 1380.847674319996 R{1,20} + 2208.077428350645 R{1,21}
   + 3079.433168829565 R{1,22} + 3143.564646272706 R{1,23}
   + 2376.996069085271 R{1,24} + 2350.329544115548 R{1,25}
   + 2805.121281343708 R{1,26} + 2243.985800213615 R{1,27}
   + 1890.331575661204 R{1,28} - 133.5200660505167 R{2,0}
   + 266.7270285953297 R{2,1} + 738.6917068701267 R{2,2}
   + 792.7166650030269 R{2,3} + 873.7431636755973 R{2,4}
   + 158.9443983346366 R{2,5} + 149.6928629614625 R{2,6}
   + 78.72421817290535 R{2,7} + 1247.440414619841 R{2,8}
   + 229.5397099395994 R{2,9} + 62.38492728273479 R{2,10}
   + 343.2659640215166 R{2,11} + 802.8949487698344 R{2,12}
   + 1568.005293996262 R{3,0} - 192.385172168201 R{3,1}
   + 542.1204739094342 R{3,2} + 1736.461407303362 R{3,3}
   + 2187.87472366426 R{3,4} + 2743.615547872892 R{3,5}
   + 1411.492917635638 R{3,6} + 1213.097700124978 R{3,7}
   + 1105.336273330703 R{3,8} + 2847.177794003893 R{3,9}
   + 1161.9783481063 R{3,10} + 1227.610122512581 R{3,11}
   + 2269.155256424693 R{3,12} + 1373.908386635919 R{3,13}
   + 1608.101264131296 R{3,14} + 1223.219106990523 R{3,15}
   + 1360.166845895027 R{3,16} + 1674.744889828431 R{3,17}
   + 1324.462648163729 R{3,18} + 2333.407425357272 R{3,19}
   + 1696.352689714698 R{3,20} + 3005.770943178963 R{3,21}
   + 3202.866763965891 R{3,22} + 1459.851394726474 R{3,23}
   + 2278.945003927465 R{3,24} + 3066.106614819569 R{3,25}
   + 2550.62367651867 R{3,26} + 1206.007705820872 R{3,27}
   + 944.2153422376468 R{4,0} - 110.311124685748 R{4,1}
   + 671.1309783749107 R{4,2} + 961.9247134873522 R{4,3}
   + 1027.260956633442 R{4,4} + 337.1268881585812 R{4,5}
   + 2150.243678004364 R{4,6} + 918.016429407773 R{4,7}
   + 721.6225407490934 R{4,8} + 243.0422901499458 R{4,9}
   + 570.1327272101038 R{4,10} + 777.2164770582996 R{4,11}
   + 1234.607541778804 R{4,12} + 2741.649902766926 R{4,13}
   + 1375.77364388823 R{4,14} + 780.1095711939017 R{4,15}
   + 159.1958935044179 R{4,16} + 234.4884614873574 R{4,17}
   + 856.7873978069354 R{4,18} + 1312.530542058995 R{4,19}
   + 1442.409456715861 R{4,20} + 190.1049736508751 R{4,21}
   - 185.9792297999622 R{5,0} + 244.8898671527845 R{5,1}
   + 766.3641494387587 R{5,2} + 1663.187455089027 R{5,3}
   + 842.4696984176379 R{5,4} + 433.9273075529037 R{5,5}
   + 1083.229818181405 R{5,6} + 196.0708535145823 R{5,7}
   + 163.9371809681066 R{5,8} + 406.173965562723 R{5,9}
   + 773.0378567421604 R{5,10} + 616.8744779298148 R{5,11}
   + 212.9004922258678 R{5,12} + 210.5402983828757 R{5,13}
   + 1559.876327034276 R{5,14} + 520.3378972275036 R{5,15}
   + 1840.545639354029 R{5,16} + 1285.379309158912 R{5,17}
   + 1697.681147014901 R{5,18} + 1153.304422672762 R{5,19}
   + 1546.460874264592 R{6,0} + 1939.461777148877 R{6,1}
   - 151.6582656969574 R{6,2} + 1204.572244725818 R{6,3}
   + 1997.841549736963 R{6,4} + 3187.428014146778 R{6,5}
   + 1849.77466222815 R{6,6} + 1035.741030534487 R{6,7}
   + 899.7829767480052 R{6,8} + 180.9650642944652 R{6,9}
   + 863.1284480697045 R{6,10} + 735.9711471998875 R{6,11}
   + 754.7595870284239 R{6,12} + 28.07952226866837 R{6,13}
   + 1498.8866473996 R{6,14} + 15.60739278927429 R{6,15}
   + 472.5809297948712 R{6,16} + 1387.590783270768 R{6,17}
   + 1749.040649464668 R{6,18} + 1731.366324674167 R{6,19}
   + 1019.486861760339 R{6,20} + 1919.832463841456 R{6,21}
   + 1349.694242026747 R{6,22} + 370.9040724465162 R{6,23}
Subject To
 R00: R{0,0} <= 1
 R01: R{0,1} <= 1
 R02: R{0,2} <= 1
 R03: R{0,3} <= 1
 R04: R{0,4} <= 1
 R05: R{0,5} <= 1
 R06: R{0,6} <= 1
 R07: R{0,7} <= 1
 R08: R{0,8} <= 1
 R09: R{0,9} <= 1
 R010: R{0,10} <= 1
 R011: R{0,11} <= 1
 R012: R{0,12} <= 1
 R013: R{0,13} <= 1
 R014: R{0,14} <= 1
 R015: R{0,15} <= 1
 R016: R{0,16} <= 1
 R017: R{0,17} <= 1
 R018: R{0,18} <= 1
 R019: R{0,19} <= 1
 R020: R{0,20} <= 1
 R021: R{0,21} <= 1
 R022: R{0,22} <= 1
 R023: R{0,23} <= 1
 R024: R{0,24} <= 1
 R025: R{0,25} <= 1
 R026: R{0,26} <= 1
 R027: R{0,27} <= 1
 R028: R{0,28} <= 1
 R029: R{0,29} <= 1
 R030: R{0,30} <= 1
 R031: R{0,31} <= 1
 R032: R{1,0} <= 1
 R033: R{1,1} <= 1
 R034: R{1,2} <= 1
 R035: R{1,3} <= 1
 R036: R{1,4} <= 1
 R037: R{1,5} <= 1
 R038: R{1,6} <= 1
 R039: R{1,7} <= 1
 R040: R{1,8} <= 1
 R041: R{1,9} <= 1
 R042: R{1,10} <= 1
 R043: R{1,11} <= 1
 R044: R{1,12} <= 1
 R045: R{1,13} <= 1
 R046: R{1,14} <= 1
 R047: R{1,15} <= 1
 R048: R{1,16} <= 1
 R049: R{1,17} <= 1
 R050: R{1,18} <= 1
 R051: R{1,19} <= 1
 R052: R{1,20} <= 1
 R053: R{1,21} <= 1
 R054: R{1,22} <= 1
 R055: R{1,23} <= 1
 R056: R{1,24} <= 1
 R057: R{1,25} <= 1
 R058: R{1,26} <= 1
 R059: R{1,27} <= 1
 R060: R{1,28} <= 1
 R061: R{2,0} <= 1
 R062: R{2,1} <= 1
 R063: R{2,2} <= 1
 R064: R{2,3} <= 1
 R065: R{2,4} <= 1
 R066: R{2,5} <= 1
 R067: R{2,6} <= 1
 R068: R{2,7} <= 1
 R069: R{2,8} <= 1
 R070: R{2,9} <= 1
 R071: R{2,10} <= 1
 R072: R{2,11} <= 1
 R073: R{2,12} <= 1
 R074: R{3,0} <= 1
 R075: R{3,1} <= 1
 R076: R{3,2} <= 1
 R077: R{3,3} <= 1
 R078: R{3,4} <= 1
 R079: R{3,5} <= 1
 R080: R{3,6} <= 1
 R081: R{3,7} <= 1
 R082: R{3,8} <= 1
 R083: R{3,9} <= 1
 R084: R{3,10} <= 1
 R085: R{3,11} <= 1
 R086: R{3,12} <= 1
 R087: R{3,13} <= 1
 R088: R{3,14} <= 1
 R089: R{3,15} <= 1
 R090: R{3,16} <= 1
 R091: R{3,17} <= 1
 R092: R{3,18} <= 1
 R093: R{3,19} <= 1
 R094: R{3,20} <= 1
 R095: R{3,21} <= 1
 R096: R{3,22} <= 1
 R097: R{3,23} <= 1
 R098: R{3,24} <= 1
 R099: R{3,25} <= 1
 R0100: R{3,26} <= 1
 R0101: R{3,27} <= 1
 R0102: R{4,0} <= 1
 R0103: R{4,1} <= 1
 R0104: R{4,2} <= 1
 R0105: R{4,3} <= 1
 R0106: R{4,4} <= 1
 R0107: R{4,5} <= 1
 R0108: R{4,6} <= 1
 R0109: R{4,7} <= 1
 R0110: R{4,8} <= 1
 R0111: R{4,9} <= 1
 R0112: R{4,10} <= 1
 R0113: R{4,11} <= 1
 R0114: R{4,12} <= 1
 R0115: R{4,13} <= 1
 R0116: R{4,14} <= 1
 R0117: R{4,15} <= 1
 R0118: R{4,16} <= 1
 R0119: R{4,17} <= 1
 R0120: R{4,18} <= 1
 R0121: R{4,19} <= 1
 R0122: R{4,20} <= 1
 R0123: R{4,21} <= 1
 R0124: R{5,0} <= 1
 R0125: R{5,1} <= 1
 R0126: R{5,2} <= 1
 R0127: R{5,3} <= 1
 R0128: R{5,4} <= 1
 R0129: R{5,5} <= 1
 R0130: R{5,6} <= 1
 R0131: R{5,7} <= 1
 R0132: R{5,8} <= 1
 R0133: R{5,9} <= 1
 R0134: R{5,10} <= 1
 R0135: R{5,11} <= 1
 R0136: R{5,12} <= 1
 R0137: R{5,13} <= 1
 R0138: R{5,14} <= 1
 R0139: R{5,15} <= 1
 R0140: R{5,16} <= 1
 R0141: R{5,17} <= 1
 R0142: R{5,18} <= 1
 R0143: R{5,19} <= 1
 R0144: R{6,0} <= 1
 R0145: R{6,1} <= 1
 R0146: R{6,2} <= 1
 R0147: R{6,3} <= 1
 R0148: R{6,4} <= 1
 R0149: R{6,5} <= 1
 R0150: R{6,6} <= 1
 R0151: R{6,7} <= 1
 R0152: R{6,8} <= 1
 R0153: R{6,9} <= 1
 R0154: R{6,10} <= 1
 R0155: R{6,11} <= 1
 R0156: R{6,12} <= 1
 R0157: R{6,13} <= 1
 R0158: R{6,14} <= 1
 R0159: R{6,15} <= 1
 R0160: R{6,16} <= 1
 R0161: R{6,17} <= 1
 R0162: R{6,18} <= 1
 R0163: R{6,19} <= 1
 R0164: R{6,20} <= 1
 R0165: R{6,21} <= 1
 R0166: R{6,22} <= 1
 R0167: R{6,23} <= 1
 R1_0: R{0,0} + R{0,1} + R{0,2} + R{0,3} + R{0,4} + R{0,5} + R{0,6}
   + R{0,7} + R{0,8} + R{0,9} + R{0,10} + R{0,11} + R{0,12} + R{0,13}
   + R{0,14} + R{0,15} + R{0,16} + R{0,17} + R{0,18} + R{0,19} + R{0,20}
   + R{0,21} + R{0,22} + R{0,23} + R{0,24} + R{0,25} + R{0,26} + R{0,27}
   + R{0,28} + R{0,29} + R{0,30} + R{0,31} <= 1
 R1_1: R{1,0} + R{1,1} + R{1,2} + R{1,3} + R{1,4} + R{1,5} + R{1,6}
   + R{1,7} + R{1,8} + R{1,9} + R{1,10} + R{1,11} + R{1,12} + R{1,13}
   + R{1,14} + R{1,15} + R{1,16} + R{1,17} + R{1,18} + R{1,19} + R{1,20}
   + R{1,21} + R{1,22} + R{1,23} + R{1,24} + R{1,25} + R{1,26} + R{1,27}
   + R{1,28} <= 1
 R1_2: R{2,0} + R{2,1} + R{2,2} + R{2,3} + R{2,4} + R{2,5} + R{2,6}
   + R{2,7} + R{2,8} + R{2,9} + R{2,10} + R{2,11} + R{2,12} <= 1
 R1_3: R{3,0} + R{3,1} + R{3,2} + R{3,3} + R{3,4} + R{3,5} + R{3,6}
   + R{3,7} + R{3,8} + R{3,9} + R{3,10} + R{3,11} + R{3,12} + R{3,13}
   + R{3,14} + R{3,15} + R{3,16} + R{3,17} + R{3,18} + R{3,19} + R{3,20}
   + R{3,21} + R{3,22} + R{3,23} + R{3,24} + R{3,25} + R{3,26} + R{3,27}
   <= 1
 R1_4: R{4,0} + R{4,1} + R{4,2} + R{4,3} + R{4,4} + R{4,5} + R{4,6}
   + R{4,7} + R{4,8} + R{4,9} + R{4,10} + R{4,11} + R{4,12} + R{4,13}
   + R{4,14} + R{4,15} + R{4,16} + R{4,17} + R{4,18} + R{4,19} + R{4,20}
   + R{4,21} <= 1
 R1_5: R{5,0} + R{5,1} + R{5,2} + R{5,3} + R{5,4} + R{5,5} + R{5,6}
   + R{5,7} + R{5,8} + R{5,9} + R{5,10} + R{5,11} + R{5,12} + R{5,13}
   + R{5,14} + R{5,15} + R{5,16} + R{5,17} + R{5,18} + R{5,19} <= 1
 R1_6: R{6,0} + R{6,1} + R{6,2} + R{6,3} + R{6,4} + R{6,5} + R{6,6}
   + R{6,7} + R{6,8} + R{6,9} + R{6,10} + R{6,11} + R{6,12} + R{6,13}
   + R{6,14} + R{6,15} + R{6,16} + R{6,17} + R{6,18} + R{6,19} + R{6,20}
   + R{6,21} + R{6,22} + R{6,23} <= 1
 R2_0: 5 R{0,1} + 5 R{0,2} + 5 R{0,3} + 5 R{0,4} + 5 R{0,5} + 5 R{0,6}
   + 5 R{0,7} + 5 R{0,8} + 5 R{0,10} + 5 R{0,11} + 5 R{0,12} + 5 R{0,13}
   + 5 R{0,15} + 5 R{0,17} + 5 R{0,19} + 5 R{0,20} + 5 R{0,21} + 5 R{0,22}
   + 5 R{0,28} + 5 R{0,31} + 5 R{1,5} + 5 R{1,10} + 5 R{1,13} + 5 R{1,15}
   + 5 R{1,16} + 5 R{1,17} + 5 R{1,19} + 5 R{1,22} + 5 R{1,23} + 5 R{1,24}
   + 5 R{1,25} + 5 R{1,26} + 5 R{1,28} + 5 R{3,0} + 5 R{3,3} + 5 R{3,4}
   + 5 R{3,12} + 5 R{3,14} + 5 R{3,21} + 5 R{3,22} + 5 R{3,24} + 5 R{3,25}
   + 5 R{3,26} + 5 R{6,4} + 5 R{6,5} <= 5
 R2_1: 9 R{0,2} + 9 R{0,3} + 9 R{0,4} + 9 R{0,8} + 9 R{0,9} + 9 R{0,14}
   + 9 R{0,16} + 9 R{0,17} + 9 R{0,23} + 9 R{0,26} + 9 R{0,30} + 9 R{1,2}
   + 9 R{1,3} + 9 R{1,16} + 9 R{1,22} + 9 R{1,23} + 9 R{2,2} + 9 R{3,9}
   + 9 R{3,19} + 9 R{4,2} + 9 R{4,3} + 9 R{4,7} + 9 R{4,8} + 9 R{4,11}
   + 9 R{4,12} + 9 R{4,13} + 9 R{4,14} + 9 R{4,15} + 9 R{4,18} + 9 R{4,19}
   + 9 R{6,1} <= 9
 R2_2: <= 0
 R2_3: 5 R{0,5} + 5 R{0,6} + 5 R{0,28} + 5 R{0,31} + 5 R{1,4} + 5 R{1,5}
   + 5 R{1,7} + 5 R{1,15} + 5 R{1,20} + 5 R{1,24} + 5 R{1,25} + 5 R{1,28}
   + 5 R{3,16} + 5 R{3,23} + 5 R{4,2} + 5 R{4,3} + 5 R{4,6} + 5 R{4,15}
   + 5 R{4,16} + 5 R{4,17} + 5 R{4,18} + 5 R{4,19} + 5 R{4,21} + 5 R{5,6}
   + 5 R{5,7} + 5 R{5,14} + 5 R{5,15} + 5 R{5,16} + 5 R{5,18} + 5 R{5,19}
   + 5 R{6,4} + 5 R{6,5} + 5 R{6,14} + 5 R{6,21} + 5 R{6,22} <= 5
 R2_4: 13 R{0,18} + 13 R{0,20} + 13 R{0,27} + 13 R{1,4} + 13 R{1,5}
   + 13 R{1,24} + 13 R{3,26} + 13 R{4,0} + 13 R{4,2} + 13 R{4,19}
   + 13 R{5,17} <= 13
 R2_5: 5 R{1,24} + 5 R{2,1} + 5 R{2,2} <= 5
 R2_6: <= 0
 R2_7: 8 R{0,1} + 8 R{0,2} + 8 R{0,3} + 8 R{0,4} + 8 R{0,6} + 8 R{0,12}
   + 8 R{0,13} + 8 R{0,20} + 8 R{0,22} + 8 R{0,23} + 8 R{0,25} + 8 R{0,26}
   + 8 R{0,27} + 8 R{0,31} + 8 R{1,4} + 8 R{1,20} + 8 R{1,24} + 8 R{2,3}
   + 8 R{2,5} + 8 R{3,5} + 8 R{3,6} + 8 R{3,13} + 8 R{3,15} + 8 R{3,16}
   + 8 R{3,23} + 8 R{4,0} + 8 R{4,4} + 8 R{4,5} + 8 R{4,14} + 8 R{4,19}
   + 8 R{5,5} + 8 R{5,17} + 8 R{5,19} + 8 R{6,6} <= 8
 R2_8: 9 R{0,3} + 9 R{0,5} + 9 R{0,6} + 9 R{0,7} + 9 R{0,8} + 9 R{0,9}
   + 9 R{0,14} + 9 R{0,16} + 9 R{0,17} + 9 R{0,20} + 9 R{0,24} + 9 R{0,25}
   + 9 R{0,28} + 9 R{0,29} + 9 R{0,30} + 9 R{0,31} + 9 R{1,3} + 9 R{1,6}
   + 9 R{1,16} + 9 R{1,17} + 9 R{1,18} + 9 R{1,21} + 9 R{1,22} + 9 R{1,23}
   + 9 R{1,25} + 9 R{1,26} + 9 R{1,28} + 9 R{3,5} + 9 R{3,18} + 9 R{3,22}
   + 9 R{3,24} + 9 R{3,25} + 9 R{3,26} + 9 R{3,27} + 9 R{6,5} + 9 R{6,16}
   + 9 R{6,19} + 9 R{6,21} + 9 R{6,23} <= 9
 R2_9: 12 R{1,1} + 12 R{1,2} + 12 R{1,3} + 12 R{1,4} + 12 R{1,5}
   + 12 R{1,6} + 12 R{1,8} + 12 R{1,13} + 12 R{1,16} + 12 R{1,17}
   + 12 R{1,19} + 12 R{1,21} + 12 R{1,24} + 12 R{1,25} + 12 R{1,28}
   + 12 R{3,11} + 12 R{3,12} + 12 R{3,19} + 12 R{3,24} + 12 R{4,6}
   + 12 R{4,13} + 12 R{4,20} + 12 R{6,18} + 12 R{6,20} <= 12
 R2_10: 5 R{0,2} + 5 R{0,3} + 5 R{0,6} + 5 R{0,8} + 5 R{0,15} + 5 R{0,17}
   + 5 R{0,20} + 5 R{0,22} + 5 R{0,24} + 5 R{0,30} + 5 R{1,1} + 5 R{1,2}
   + 5 R{1,3} + 5 R{1,6} + 5 R{1,8} + 5 R{1,10} + 5 R{1,12} + 5 R{1,13}
   + 5 R{1,14} + 5 R{1,15} + 5 R{1,17} + 5 R{1,18} + 5 R{1,19} + 5 R{1,20}
   + 5 R{1,21} + 5 R{1,23} + 5 R{1,27} + 5 R{3,27} + 5 R{6,4} + 5 R{6,5}
   + 5 R{6,14} + 5 R{6,19} + 5 R{6,21} <= 5
 R2_11: 14 R{0,7} + 14 R{0,8} + 14 R{0,13} + 14 R{0,18} + 14 R{0,24}
   + 14 R{0,27} + 14 R{0,29} + 14 R{1,1} + 14 R{1,2} + 14 R{1,3}
   + 14 R{1,6} + 14 R{1,8} + 14 R{1,12} + 14 R{1,16} + 14 R{1,17}
   + 14 R{1,19} + 14 R{1,20} + 14 R{1,21} + 14 R{1,22} + 14 R{1,23}
   + 14 R{1,25} + 14 R{1,28} + 14 R{2,6} + 14 R{3,7} + 14 R{3,12}
   + 14 R{3,17} + 14 R{3,24} + 14 R{4,6} + 14 R{4,13} + 14 R{6,9}
   + 14 R{6,16} + 14 R{6,19} <= 14
 R2_12: 13 R{0,6} + 13 R{0,13} + 13 R{0,23} + 13 R{1,7} + 13 R{1,15}
   + 13 R{1,18} + 13 R{1,19} + 13 R{2,1} + 13 R{2,2} + 13 R{2,4}
   + 13 R{2,5} + 13 R{2,8} + 13 R{2,9} + 13 R{2,10} + 13 R{2,11}
   + 13 R{2,12} + 13 R{3,0} + 13 R{3,7} + 13 R{3,8} + 13 R{3,12}
   + 13 R{3,24} + 13 R{3,26} + 13 R{4,6} + 13 R{4,13} + 13 R{4,15}
   + 13 R{4,20} <= 13
 R2_13: 8 R{0,1} + 8 R{0,2} + 8 R{0,3} + 8 R{0,4} + 8 R{0,8} + 8 R{0,12}
   + 8 R{0,13} + 8 R{0,15} + 8 R{0,19} + 8 R{0,20} + 8 R{0,23} + 8 R{0,24}
   + 8 R{0,26} + 8 R{0,29} + 8 R{0,30} + 8 R{1,15} + 8 R{1,23} + 8 R{1,26}
   + 8 R{1,27} + 8 R{6,21} + 8 R{6,23} <= 8
 R2_14: <= 0
 R2_15: 12 R{0,1} + 12 R{0,2} + 12 R{0,4} + 12 R{0,9} + 12 R{0,11}
   + 12 R{0,13} + 12 R{0,14} + 12 R{0,15} + 12 R{0,16} + 12 R{0,17}
   + 12 R{0,18} + 12 R{0,21} + 12 R{0,22} + 12 R{0,23} + 12 R{0,25}
   + 12 R{0,26} + 12 R{0,27} + 12 R{0,30} + 12 R{0,31} + 12 R{1,15}
   + 12 R{3,12} + 12 R{3,15} + 12 R{3,27} <= 12
 R2_16: 5 R{0,10} + 5 R{0,11} + 5 R{0,21} + 5 R{1,1} + 5 R{1,2} + 5 R{1,4}
   + 5 R{1,5} + 5 R{1,7} + 5 R{1,8} + 5 R{1,10} + 5 R{1,11} + 5 R{1,12}
   + 5 R{1,15} + 5 R{1,24} + 5 R{1,27} + 5 R{3,9} + 5 R{3,10} + 5 R{3,11}
   + 5 R{3,18} + 5 R{3,19} + 5 R{3,21} + 5 R{3,22} + 5 R{3,25} + 5 R{4,6}
   + 5 R{4,13} + 5 R{4,20} <= 5
 R2_17: 11 R{0,4} + 11 R{0,6} + 11 R{0,9} + 11 R{0,11} + 11 R{0,14}
   + 11 R{0,17} + 11 R{0,18} + 11 R{0,20} + 11 R{0,21} + 11 R{0,22}
   + 11 R{0,27} + 11 R{0,30} + 11 R{1,7} + 11 R{1,9} + 11 R{1,19}
   + 11 R{2,7} + 11 R{3,2} + 11 R{3,3} + 11 R{3,9} + 11 R{3,12}
   + 11 R{3,19} + 11 R{3,21} + 11 R{3,22} + 11 R{3,24} + 11 R{3,25}
   + 11 R{5,3} + 11 R{5,6} + 11 R{5,14} + 11 R{5,16} + 11 R{6,12}
   + 11 R{6,19} <= 11
 R2_18: 6 R{0,4} + 6 R{0,5} + 6 R{0,9} + 6 R{0,10} + 6 R{0,14} + 6 R{0,17}
   + 6 R{0,18} + 6 R{0,23} + 6 R{0,26} + 6 R{0,27} + 6 R{0,30} + 6 R{1,4}
   + 6 R{1,5} + 6 R{1,20} + 6 R{1,24} + 6 R{2,4} + 6 R{3,5} + 6 R{3,9}
   + 6 R{3,19} + 6 R{3,21} + 6 R{3,22} + 6 R{3,25} + 6 R{5,4} + 6 R{5,9}
   + 6 R{5,11} + 6 R{5,16} + 6 R{5,17} + 6 R{6,3} + 6 R{6,4} + 6 R{6,5}
   + 6 R{6,6} + 6 R{6,7} + 6 R{6,19} + 6 R{6,21} <= 6
 R2_19: 8 R{0,4} + 8 R{0,23} + 8 R{1,4} + 8 R{1,7} + 8 R{2,3} + 8 R{3,0}
   + 8 R{3,5} + 8 R{3,8} + 8 R{3,17} + 8 R{4,4} + 8 R{4,6} + 8 R{4,12}
   + 8 R{4,13} + 8 R{5,3} + 8 R{5,6} + 8 R{6,3} + 8 R{6,4} + 8 R{6,5}
   + 8 R{6,6} + 8 R{6,17} + 8 R{6,18} + 8 R{6,21} <= 8
 R2_20: 10 R{0,1} + 10 R{0,2} + 10 R{0,3} + 10 R{0,7} + 10 R{0,9}
   + 10 R{0,13} + 10 R{0,14} + 10 R{0,16} + 10 R{0,18} + 10 R{0,19}
   + 10 R{0,22} + 10 R{0,29} + 10 R{0,31} + 10 R{1,2} + 10 R{1,3}
   + 10 R{1,16} + 10 R{1,17} + 10 R{1,19} + 10 R{1,21} + 10 R{1,22}
   + 10 R{1,23} + 10 R{1,26} + 10 R{1,27} + 10 R{2,12} + 10 R{3,3}
   + 10 R{3,4} + 10 R{3,20} + 10 R{4,14} + 10 R{5,2} + 10 R{5,14}
   + 10 R{5,16} + 10 R{6,0} + 10 R{6,1} + 10 R{6,5} <= 10
 R2_21: 8 R{0,5} + 8 R{0,6} + 8 R{0,20} + 8 R{0,22} + 8 R{0,26} + 8 R{1,2}
   + 8 R{1,3} + 8 R{1,4} + 8 R{1,5} + 8 R{1,13} + 8 R{1,15} + 8 R{1,17}
   + 8 R{1,21} + 8 R{1,24} + 8 R{1,25} + 8 R{1,26} + 8 R{1,27} + 8 R{2,8}
   + 8 R{3,6} + 8 R{3,13} + 8 R{3,23} + 8 R{3,26} + 8 R{5,17} + 8 R{5,18}
   + 8 R{5,19} + 8 R{6,3} + 8 R{6,4} + 8 R{6,7} + 8 R{6,8} + 8 R{6,17}
   + 8 R{6,22} <= 8
 R2_22: 11 R{0,11} + 11 R{0,16} + 11 R{0,21} + 11 R{0,23} + 11 R{0,25}
   + 11 R{1,1} + 11 R{1,2} + 11 R{1,3} + 11 R{1,4} + 11 R{1,6} + 11 R{1,7}
   + 11 R{1,10} + 11 R{1,12} + 11 R{1,13} + 11 R{1,14} + 11 R{1,15}
   + 11 R{1,16} + 11 R{1,17} + 11 R{1,18} + 11 R{1,19} + 11 R{1,20}
   + 11 R{1,21} + 11 R{1,22} + 11 R{1,23} + 11 R{1,24} + 11 R{1,25}
   + 11 R{1,26} + 11 R{1,27} + 11 R{1,28} + 11 R{3,15} + 11 R{3,18}
   + 11 R{3,27} + 11 R{5,6} + 11 R{5,11} + 11 R{5,14} + 11 R{5,15}
   + 11 R{5,16} + 11 R{5,17} + 11 R{5,19} + 11 R{6,13} + 11 R{6,17}
   + 11 R{6,20} <= 11
 R2_23: 14 R{0,1} + 14 R{0,2} + 14 R{0,3} + 14 R{0,4} + 14 R{0,5}
   + 14 R{0,6} + 14 R{0,12} + 14 R{0,15} + 14 R{0,19} + 14 R{0,20}
   + 14 R{0,22} + 14 R{0,23} + 14 R{0,26} + 14 R{0,28} + 14 R{1,4}
   + 14 R{1,5} + 14 R{1,7} + 14 R{1,11} + 14 R{1,13} + 14 R{1,14}
   + 14 R{1,18} + 14 R{1,24} + 14 R{1,26} + 14 R{1,27} + 14 R{3,5}
   + 14 R{3,15} + 14 R{3,21} + 14 R{3,26} + 14 R{4,20} + 14 R{6,14}
   + 14 R{6,18} + 14 R{6,20} + 14 R{6,23} <= 14
 R2_24: 7 R{0,14} + 7 R{0,15} + 7 R{0,18} + 7 R{0,20} + 7 R{1,15}
   + 7 R{1,26} + 7 R{2,11} + 7 R{3,0} + 7 R{3,8} + 7 R{3,15} + 7 R{4,6}
   + 7 R{4,13} + 7 R{5,1} + 7 R{5,2} + 7 R{5,3} + 7 R{5,5} + 7 R{5,6}
   + 7 R{5,7} + 7 R{5,12} + 7 R{5,13} + 7 R{5,15} + 7 R{5,17} + 7 R{5,18}
   + 7 R{6,14} + 7 R{6,15} + 7 R{6,18} <= 7
 R2_25: 12 R{0,4} + 12 R{0,23} + 12 R{1,10} + 12 R{1,16} + 12 R{1,18}
   + 12 R{1,20} + 12 R{1,22} + 12 R{1,23} + 12 R{1,27} + 12 R{1,28}
   + 12 R{3,2} + 12 R{3,3} + 12 R{3,4} + 12 R{3,12} + 12 R{3,20}
   + 12 R{3,22} + 12 R{3,24} + 12 R{3,25} + 12 R{4,6} + 12 R{5,17}
   + 12 R{5,18} + 12 R{5,19} + 12 R{6,0} + 12 R{6,1} + 12 R{6,5}
   + 12 R{6,6} + 12 R{6,10} + 12 R{6,14} + 12 R{6,17} + 12 R{6,19}
   + 12 R{6,21} <= 12
 R2_26: 6 R{0,2} + 6 R{0,3} + 6 R{0,4} + 6 R{0,8} + 6 R{0,12} + 6 R{0,15}
   + 6 R{0,19} + 6 R{0,23} + 6 R{0,24} + 6 R{0,26} + 6 R{0,29} + 6 R{0,31}
   + 6 R{1,15} + 6 R{1,17} + 6 R{1,18} + 6 R{1,19} + 6 R{1,21} + 6 R{1,24}
   + 6 R{1,25} + 6 R{1,26} + 6 R{1,27} + 6 R{1,28} + 6 R{3,5} + 6 R{3,10}
   + 6 R{3,11} + 6 R{3,12} + 6 R{3,13} + 6 R{3,16} + 6 R{3,20} + 6 R{3,21}
   + 6 R{3,22} + 6 R{3,24} + 6 R{3,25} + 6 R{3,26} + 6 R{4,8} + 6 R{4,9}
   + 6 R{4,10} + 6 R{4,11} + 6 R{4,16} + 6 R{4,18} + 6 R{5,1} + 6 R{5,2}
   + 6 R{5,3} + 6 R{5,5} + 6 R{5,8} + 6 R{5,9} + 6 R{5,10} + 6 R{5,11}
   + 6 R{5,14} + 6 R{5,16} + 6 R{5,17} + 6 R{5,18} + 6 R{5,19} + 6 R{6,0}
   + 6 R{6,17} <= 6
 R2_27: <= 0
 R2_28: 7 R{0,5} + 7 R{0,6} + 7 R{0,7} + 7 R{0,9} + 7 R{0,17} + 7 R{0,19}
   + 7 R{0,20} + 7 R{0,22} + 7 R{0,24} + 7 R{0,28} + 7 R{0,29} + 7 R{0,30}
   + 7 R{1,16} + 7 R{1,19} + 7 R{1,22} + 7 R{1,23} + 7 R{1,26} + 7 R{1,27}
   + 7 R{2,8} + 7 R{2,12} + 7 R{3,6} + 7 R{3,9} + 7 R{3,11} + 7 R{3,12}
   + 7 R{3,21} + 7 R{3,22} + 7 R{3,24} + 7 R{3,25} + 7 R{3,26} + 7 R{4,5}
   + 7 R{4,7} + 7 R{4,10} + 7 R{4,11} + 7 R{4,12} + 7 R{4,17} + 7 R{5,1}
   + 7 R{5,2} + 7 R{5,4} + 7 R{5,5} + 7 R{5,7} + 7 R{5,8} + 7 R{5,9}
   + 7 R{5,10} + 7 R{5,15} + 7 R{5,17} <= 7
 R2_29: <= 0
 R2_30: <= 0
 R2_31: 5 R{0,2} + 5 R{0,3} + 5 R{0,5} + 5 R{0,7} + 5 R{0,8} + 5 R{0,9}
   + 5 R{0,10} + 5 R{0,12} + 5 R{0,16} + 5 R{0,17} + 5 R{0,19} + 5 R{0,24}
   + 5 R{0,25} + 5 R{0,28} + 5 R{0,29} + 5 R{0,30} + 5 R{1,2} + 5 R{1,3}
   + 5 R{1,10} + 5 R{1,17} + 5 R{1,18} + 5 R{1,19} + 5 R{1,21} + 5 R{1,25}
   + 5 R{1,26} + 5 R{1,27} + 5 R{3,2} + 5 R{3,3} + 5 R{3,4} + 5 R{3,9}
   + 5 R{3,12} + 5 R{3,19} + 5 R{3,20} + 5 R{3,21} + 5 R{3,22} + 5 R{3,25}
   + 5 R{4,0} + 5 R{4,3} + 5 R{4,19} + 5 R{5,14} + 5 R{5,16} + 5 R{6,17}
   + 5 R{6,22} <= 5
 R2_32: 10 R{0,20} + 10 R{0,22} + 10 R{0,30} + 10 R{1,4} + 10 R{1,7}
   + 10 R{2,1} + 10 R{2,8} + 10 R{2,12} + 10 R{3,5} + 10 R{3,20}
   + 10 R{3,23} + 10 R{3,26} + 10 R{4,6} + 10 R{5,6} + 10 R{5,14}
   + 10 R{5,15} + 10 R{5,16} <= 10
 R2_33: 12 R{0,1} + 12 R{0,2} + 12 R{0,3} + 12 R{0,5} + 12 R{0,7}
   + 12 R{0,8} + 12 R{0,10} + 12 R{0,12} + 12 R{0,13} + 12 R{0,15}
   + 12 R{0,19} + 12 R{0,24} + 12 R{0,26} + 12 R{0,28} + 12 R{0,29}
   + 12 R{0,31} + 12 R{1,5} + 12 R{2,4} + 12 R{2,8} + 12 R{3,0} + 12 R{3,5}
   + 12 R{3,8} + 12 R{3,20} + 12 R{4,0} + 12 R{4,4} + 12 R{4,6}
   + 12 R{4,13} + 12 R{4,20} + 12 R{5,4} + 12 R{5,10} <= 12
 R2_34: <= 0
 R2_35: 15 R{0,3} + 15 R{0,5} + 15 R{0,6} + 15 R{0,8} + 15 R{0,12}
   + 15 R{0,15} + 15 R{0,19} + 15 R{0,20} + 15 R{0,22} + 15 R{0,24}
   + 15 R{0,28} + 15 R{0,29} + 15 R{0,31} + 15 R{2,8} + 15 R{3,0}
   + 15 R{3,2} + 15 R{3,3} + 15 R{3,4} + 15 R{3,5} + 15 R{3,12}
   + 15 R{3,14} + 15 R{3,15} + 15 R{3,20} + 15 R{3,23} + 15 R{3,24} <= 15
 R2_36: <= 0
 R2_37: 6 R{0,5} + 6 R{0,12} + 6 R{0,15} + 6 R{0,17} + 6 R{0,28} + 6 R{1,5}
   + 6 R{1,15} + 6 R{1,18} + 6 R{1,24} + 6 R{2,1} + 6 R{2,2} + 6 R{2,3}
   + 6 R{2,4} + 6 R{2,8} + 6 R{2,9} + 6 R{2,11} + 6 R{3,5} + 6 R{3,9}
   + 6 R{3,12} + 6 R{3,13} + 6 R{3,14} + 6 R{3,15} + 6 R{3,16} + 6 R{3,19}
   + 6 R{3,21} + 6 R{3,22} + 6 R{3,24} + 6 R{4,7} + 6 R{4,9} + 6 R{4,10}
   + 6 R{4,13} + 6 R{4,20} + 6 R{5,3} + 6 R{5,4} + 6 R{5,11} + 6 R{5,12}
   + 6 R{5,13} + 6 R{5,18} + 6 R{5,19} + 6 R{6,6} + 6 R{6,14} + 6 R{6,18}
   <= 6
 R2_38: 8 R{0,28} + 8 R{1,2} + 8 R{1,3} + 8 R{1,10} + 8 R{1,15} + 8 R{1,16}
   + 8 R{1,17} + 8 R{1,18} + 8 R{1,20} + 8 R{1,22} + 8 R{1,23} + 8 R{1,25}
   + 8 R{1,28} + 8 R{2,8} + 8 R{2,10} + 8 R{2,11} + 8 R{3,2} + 8 R{3,3}
   + 8 R{3,4} + 8 R{3,6} + 8 R{3,7} + 8 R{3,10} + 8 R{3,11} + 8 R{3,12}
   + 8 R{3,14} + 8 R{3,16} + 8 R{3,17} + 8 R{3,20} + 8 R{3,23} + 8 R{3,24}
   + 8 R{3,26} + 8 R{4,13} + 8 R{4,20} + 8 R{4,21} + 8 R{5,10} + 8 R{5,13}
   + 8 R{6,0} + 8 R{6,1} + 8 R{6,15} + 8 R{6,18} <= 8
 R2_39: <= 0
 R2_40: 14 R{0,6} + 14 R{0,15} + 14 R{0,18} + 14 R{0,20} + 14 R{0,22}
   + 14 R{0,26} + 14 R{0,27} + 14 R{0,28} + 14 R{1,4} + 14 R{1,5}
   + 14 R{1,7} + 14 R{1,10} + 14 R{1,20} + 14 R{1,22} + 14 R{1,23}
   + 14 R{1,24} + 14 R{1,25} + 14 R{1,28} + 14 R{2,4} + 14 R{2,9}
   + 14 R{3,5} + 14 R{3,6} + 14 R{3,10} + 14 R{3,11} + 14 R{3,13}
   + 14 R{3,16} + 14 R{3,17} + 14 R{3,23} + 14 R{4,2} + 14 R{4,3}
   + 14 R{4,5} + 14 R{4,7} + 14 R{4,8} + 14 R{4,10} + 14 R{4,12}
   + 14 R{4,14} + 14 R{4,15} + 14 R{4,17} + 14 R{4,18} + 14 R{4,19}
   + 14 R{4,21} + 14 R{5,9} + 14 R{5,10} + 14 R{5,17} + 14 R{6,21}
   + 14 R{6,22} <= 14
 R2_41: 5 R{0,4} + 5 R{0,9} + 5 R{0,14} + 5 R{0,16} + 5 R{0,17} + 5 R{0,18}
   + 5 R{0,25} + 5 R{0,27} + 5 R{0,30} + 5 R{1,12} + 5 R{1,14} + 5 R{3,4}
   + 5 R{3,6} + 5 R{3,7} + 5 R{3,9} + 5 R{3,10} + 5 R{3,11} + 5 R{3,13}
   + 5 R{3,14} + 5 R{3,16} + 5 R{3,17} + 5 R{3,18} + 5 R{3,19} + 5 R{3,21}
   + 5 R{3,22} + 5 R{3,23} + 5 R{3,25} + 5 R{3,26} + 5 R{3,27} + 5 R{5,3}
   + 5 R{5,18} + 5 R{6,0} + 5 R{6,1} + 5 R{6,3} + 5 R{6,4} + 5 R{6,5}
   + 5 R{6,6} + 5 R{6,7} + 5 R{6,8} + 5 R{6,10} + 5 R{6,11} + 5 R{6,12}
   + 5 R{6,14} + 5 R{6,18} + 5 R{6,19} + 5 R{6,20} + 5 R{6,21} + 5 R{6,22}
   <= 5
 R2_42: 4 R{0,4} + 4 R{0,8} + 4 R{0,9} + 4 R{0,16} + 4 R{0,24} + 4 R{0,27}
   + 4 R{1,22} + 4 R{1,23} + 4 R{1,25} + 4 R{1,27} + 4 R{2,8} + 4 R{3,9}
   + 4 R{3,15} + 4 R{3,24} + 4 R{3,25} + 4 R{4,6} + 4 R{4,10} + 4 R{5,1}
   + 4 R{5,5} + 4 R{5,6} + 4 R{5,7} + 4 R{5,8} + 4 R{5,12} + 4 R{5,14}
   + 4 R{5,15} + 4 R{5,16} + 4 R{5,18} + 4 R{5,19} + 4 R{6,22} <= 4
 R2_43: <= 0
 R2_44: 12 R{0,2} + 12 R{0,3} + 12 R{0,4} + 12 R{0,5} + 12 R{0,6}
   + 12 R{0,16} + 12 R{0,20} + 12 R{0,22} + 12 R{0,25} + 12 R{0,26}
   + 12 R{1,4} + 12 R{1,5} + 12 R{1,14} + 12 R{1,19} + 12 R{1,21}
   + 12 R{1,24} + 12 R{1,26} + 12 R{1,27} + 12 R{3,5} + 12 R{3,13}
   + 12 R{3,15} + 12 R{5,1} + 12 R{5,2} + 12 R{5,3} + 12 R{5,4}
   + 12 R{5,11} + 12 R{5,12} + 12 R{5,13} + 12 R{5,15} + 12 R{5,17}
   + 12 R{5,18} + 12 R{5,19} + 12 R{6,17} + 12 R{6,22} <= 12
 R2_45: 6 R{0,5} + 6 R{0,6} + 6 R{0,7} + 6 R{0,9} + 6 R{0,10} + 6 R{0,14}
   + 6 R{0,16} + 6 R{0,17} + 6 R{0,18} + 6 R{0,21} + 6 R{0,22} + 6 R{0,25}
   + 6 R{0,27} + 6 R{0,28} + 6 R{0,31} + 6 R{1,7} + 6 R{1,10} + 6 R{1,14}
   + 6 R{1,20} + 6 R{3,5} + 6 R{3,6} + 6 R{3,7} + 6 R{3,9} + 6 R{3,10}
   + 6 R{3,14} + 6 R{3,15} + 6 R{3,17} + 6 R{3,18} + 6 R{3,21} + 6 R{3,22}
   + 6 R{3,25} + 6 R{3,26} + 6 R{3,27} + 6 R{6,5} + 6 R{6,7} + 6 R{6,8}
   + 6 R{6,11} + 6 R{6,14} <= 6
 R2_46: 6 R{0,8} + 6 R{0,15} + 6 R{0,24} + 6 R{0,26} + 6 R{0,29} + 6 R{1,1}
   + 6 R{1,2} + 6 R{1,3} + 6 R{1,4} + 6 R{1,7} + 6 R{1,8} + 6 R{1,13}
   + 6 R{1,15} + 6 R{1,19} + 6 R{1,21} + 6 R{1,22} + 6 R{1,23} + 6 R{1,26}
   + 6 R{1,27} + 6 R{3,5} + 6 R{3,8} + 6 R{3,9} + 6 R{3,15} + 6 R{3,23}
   + 6 R{4,6} + 6 R{4,13} + 6 R{4,20} + 6 R{5,18} + 6 R{6,10} <= 6
Bounds
End
